Problem:    
Rows:       248
Columns:    89 (72 integer, 72 binary)
Non-zeros:  820
Status:     INTEGER OPTIMAL
Objective:  value = 75.721836 (MINimum)

   No.   Row name        Activity     Lower bound   Upper bound
------ ------------    ------------- ------------- -------------
     1 r.5                   2075.72             0               
     2 r.6                  -1980.04      -1984.23               
     3 r.7                   75.7218             0               
     4 r.8                  -1910.67      -1986.39               
     5 r.9                   75.7218             0               
     6 r.10                 -1879.27      -1982.67               
     7 r.11                  2075.72             0               
     8 r.12                 -1946.88      -1986.62               
     9 r.13                  75.7218             0               
    10 r.14                  -1896.6      -1972.32               
    11 r.15                  2075.72             0               
    12 r.16                 -1960.26      -1981.45               
    13 r.17                  75.7218             0               
    14 r.18                 -1909.37      -1985.09               
    15 r.19                  2075.72             0               
    16 r.20                 -1981.81      -1990.16               
    17 r.21                  2075.72             0               
    18 r.22                 -1972.33      -1986.29               
    19 r.23                  75.7218             0               
    20 r.24                  20.3478      -1989.66               
    21 r.25                  2075.72             0               
    22 r.26                 -1924.28      -1966.95               
    23 r.27                  75.7218             0               
    24 r.28                 -1904.69      -1980.41               
    25 r.29                  75.7218             0               
    26 r.30                  4.18311      -1966.73               
    27 r.31                  2075.72             0               
    28 r.32                 -1924.28       -1980.4               
    29 r.33                  2075.72             0               
    30 r.34                 -1998.82      -1998.82               
    31 r.35                  75.7218             0               
    32 r.36                 -1991.96      -1991.96               
    33 r.37                        1             1             = 
    34 r.38                        1             1             = 
    35 r.39                        1             1             = 
    36 r.40                        1             1             = 
    37 r.41                        1             1             = 
    38 r.42                        1             1             = 
    39 r.43                        1             1             = 
    40 r.44                        1             1             = 
    41 r.45                  100.773       17.3301               
    42 r.46                 -100.773      -1984.23               
    43 r.47                  1963.79        13.382               
    44 r.48                 -1963.79      -1986.39               
    45 r.49                  83.4431       27.6794               
    46 r.50                 -83.4431      -1984.23               
    47 r.51                  1950.41       18.5483               
    48 r.52                 -1950.41      -1986.39               
    49 r.53                  70.6698       14.9061               
    50 r.54                 -70.6698      -1984.23               
    51 r.55                  1928.86        9.8447               
    52 r.56                 -1928.86      -1986.39               
    53 r.57                   13.712        13.712               
    54 r.58                  -19.712      -1984.23               
    55 r.59                  1925.02       10.3446               
    56 r.60                 -1919.02      -1986.39               
    57 r.61                 -1944.24      -1963.95               
    58 r.62                 -1924.65      -1977.41               
    59 r.63                 -13.6092      -1963.95               
    60 r.64                  5.98142      -1977.41               
    61 r.65                  1984.23       33.2743               
    62 r.66                 -1984.23      -1984.23               
    63 r.67                  1986.39        19.599               
    64 r.68                 -1986.39      -1986.39               
    65 r.69                 -1981.23      -1981.23               
    66 r.70                 -1911.85      -1983.39               
    67 r.71                  11.9209      -1981.23               
    68 r.72                  81.2938      -1983.39               
    69 r.73                  1899.23        15.775               
    70 r.74                 -1899.23      -1982.67               
    71 r.75                  36.2082       13.6092               
    72 r.76                 -36.2082      -1986.62               
    73 r.77                  1982.67       27.6794               
    74 r.78                 -1982.67      -1982.67               
    75 r.79                  1986.62       18.5483               
    76 r.80                 -1986.62      -1986.62               
    77 r.81                   1969.9       14.9061               
    78 r.82                  -1969.9      -1982.67               
    79 r.83                  1965.07        9.8447               
    80 r.84                 -1965.07      -1986.62               
    81 r.85                  1912.94        13.712               
    82 r.86                 -1918.94      -1982.67               
    83 r.87                  1961.23       10.3446               
    84 r.88                 -1955.23      -1986.62               
    85 r.89                  1954.99       33.0518               
    86 r.90                 -1954.99      -1982.67               
    87 r.91                  42.1896       19.5906               
    88 r.92                 -42.1896      -1986.62               
    89 r.93                  1883.45      -1963.73               
    90 r.94                 -45.0095       -1977.4               
    91 r.95                 -48.9397      -1963.73               
    92 r.96                  -1977.4       -1977.4               
    93 r.97                 -1880.45      -1979.67               
    94 r.98                 -1948.06      -1983.62               
    95 r.99                  112.694      -1979.67               
    96 r.100                 45.0856      -1983.62               
    97 r.101                 1916.56        15.775               
    98 r.102                -1916.56      -1972.32               
    99 r.103                 49.5902       13.6092               
   100 r.104                -49.5902      -1981.45               
   101 r.105                 17.3301       17.3301               
   102 r.106                -17.3301      -1972.32               
   103 r.107                  13.382        13.382               
   104 r.108                 -13.382      -1981.45               
   105 r.109                 12.7733      -1969.32               
   106 r.110                 -50.887      -1978.45               
   107 r.111                -1914.79      -1969.32               
   108 r.112                -1978.45      -1978.45               
   109 r.113                 1930.27        13.712               
   110 r.114                -1936.27      -1972.32               
   111 r.115                 1974.61       10.3446               
   112 r.116                -1968.61      -1981.45               
   113 r.117                 1972.32       33.0518               
   114 r.118                -1972.32      -1972.32               
   115 r.119                 55.5716       19.5906               
   116 r.120                -55.5716      -1981.45               
   117 r.121                 1900.78      -1963.73               
   118 r.122                -27.6794       -1977.4               
   119 r.123                -35.5577      -1963.73               
   120 r.124                -1964.02       -1977.4               
   121 r.125                -1897.78      -1969.32               
   122 r.126                -1961.44      -1978.45               
   123 r.127                  95.364      -1969.32               
   124 r.128                 31.7036      -1978.45               
   125 r.129                 1929.33        15.775               
   126 r.130                -1929.33      -1985.09               
   127 r.131                 71.1385       13.6092               
   128 r.132                -71.1385      -1990.16               
   129 r.133                 30.1034       17.3301               
   130 r.134                -30.1034      -1985.09               
   131 r.135                 34.9303        13.382               
   132 r.136                -34.9303      -1990.16               
   133 r.137                 12.7733      -1969.32               
   134 r.138                 -50.887      -1978.45               
   135 r.139                -1914.79      -1969.32               
   136 r.140                -1978.45      -1978.45               
   137 r.141                 1943.04        13.712               
   138 r.142                -1949.04      -1985.09               
   139 r.143                 1996.16       10.3446               
   140 r.144                -1990.16      -1990.16               
   141 r.145                 1985.09       33.0518               
   142 r.146                -1985.09      -1985.09               
   143 r.147                 77.1199       19.5906               
   144 r.148                -77.1199      -1990.16               
   145 r.149                 1913.56      -1963.73               
   146 r.150                -14.9061       -1977.4               
   147 r.151                -14.0094      -1963.73               
   148 r.152                -1942.47       -1977.4               
   149 r.153                -1910.56      -1979.09               
   150 r.154                -1982.99      -1984.16               
   151 r.155                 82.5907      -1979.09               
   152 r.156                 10.1553      -1984.16               
   153 r.157                 1980.29        15.775               
   154 r.158                -1980.29      -1986.29               
   155 r.159                 80.9832       13.6092               
   156 r.160                -80.9832      -1989.66               
   157 r.161                 81.0613       17.3301               
   158 r.162                -81.0613      -1986.29               
   159 r.163                  44.775        13.382               
   160 r.164                 -44.775      -1989.66               
   161 r.165                 63.7312       27.6794               
   162 r.166                -63.7312      -1986.29               
   163 r.167                  31.393       18.5483               
   164 r.168                 -31.393      -1989.66               
   165 r.169                 50.9578       14.9061               
   166 r.170                -50.9578      -1986.29               
   167 r.171                  9.8447        9.8447               
   168 r.172                 -9.8447      -1989.66               
   169 r.173                -1963.95      -1963.95               
   170 r.174                -1944.36      -1977.41               
   171 r.175                -1932.63      -1963.95               
   172 r.176                -1913.04      -1977.41               
   173 r.177                -35.4869      -1963.73               
   174 r.178                -1963.95       -1977.4               
   175 r.179                -4.16474      -1963.73               
   176 r.180                -1932.63       -1977.4               
   177 r.181                -1961.51      -1980.29               
   178 r.182                 7.16474      -1983.66               
   179 r.183                 31.6329      -1980.29               
   180 r.184                 2000.31      -1983.66               
   181 r.185                -1944.24      -1963.95               
   182 r.186                -1924.65      -1977.41               
   183 r.187                -13.6092      -1963.95               
   184 r.188                 5.98142      -1977.41               
   185 r.189                 45.0095       17.3301               
   186 r.190                -45.0095      -1966.95               
   187 r.191                 1957.81        13.382               
   188 r.192                -1957.81      -1980.41               
   189 r.193                 27.6794       27.6794               
   190 r.194                -27.6794      -1966.95               
   191 r.195                 1944.43       18.5483               
   192 r.196                -1944.43      -1980.41               
   193 r.197                 14.9061       14.9061               
   194 r.198                -14.9061      -1966.95               
   195 r.199                 1922.88        9.8447               
   196 r.200                -1922.88      -1980.41               
   197 r.201                -1963.95      -1963.95               
   198 r.202                -1944.36      -1977.41               
   199 r.203                -1932.63      -1963.95               
   200 r.204                -1913.04      -1977.41               
   201 r.205                 1928.46       33.2743               
   202 r.206                -1928.46      -1966.95               
   203 r.207                 1980.41        19.599               
   204 r.208                -1980.41      -1980.41               
   205 r.209                  15.775        15.775               
   206 r.210                 -15.775      -1966.73               
   207 r.211                 13.6092       13.6092               
   208 r.212                -13.6092       -1980.4               
   209 r.213                 1883.45      -1963.73               
   210 r.214                -45.0095       -1977.4               
   211 r.215                -48.9397      -1963.73               
   212 r.216                 -1977.4       -1977.4               
   213 r.217                 1900.78      -1963.73               
   214 r.218                -27.6794       -1977.4               
   215 r.219                -35.5577      -1963.73               
   216 r.220                -1964.02       -1977.4               
   217 r.221                 1913.56      -1963.73               
   218 r.222                -14.9061       -1977.4               
   219 r.223                -14.0094      -1963.73               
   220 r.224                -1942.47       -1977.4               
   221 r.225                -35.4869      -1963.73               
   222 r.226                -1963.95       -1977.4               
   223 r.227                -4.16474      -1963.73               
   224 r.228                -1932.63       -1977.4               
   225 r.229                 71.5387       33.0518               
   226 r.230                -71.5387      -1966.73               
   227 r.231                 19.5906       19.5906               
   228 r.232                -19.5906       -1980.4               
   229 r.233                -1981.23      -1981.23               
   230 r.234                -1911.85      -1983.39               
   231 r.235                 11.9209      -1981.23               
   232 r.236                 81.2938      -1983.39               
   233 r.237                -1880.45      -1979.67               
   234 r.238                -1948.06      -1983.62               
   235 r.239                 112.694      -1979.67               
   236 r.240                 45.0856      -1983.62               
   237 r.241                -1897.78      -1969.32               
   238 r.242                -1961.44      -1978.45               
   239 r.243                  95.364      -1969.32               
   240 r.244                 31.7036      -1978.45               
   241 r.245                -1910.56      -1979.09               
   242 r.246                -1982.99      -1984.16               
   243 r.247                 82.5907      -1979.09               
   244 r.248                 10.1553      -1984.16               
   245 r.249                -1961.51      -1980.29               
   246 r.250                 7.16474      -1983.66               
   247 r.251                 31.6329      -1980.29               
   248 r.252                 2000.31      -1983.66               

   No. Column name       Activity     Lower bound   Upper bound
------ ------------    ------------- ------------- -------------
     1 tt                    75.7218             0               
     2 s_1_1        *              1             0             1 
     3 t_1_1                 55.7637             0               
     4 s_1_6        *              1             0             1 
     5 s_2_1        *              0             0             1 
     6 t_2_1                 1986.39             0               
     7 s_2_6        *              0             0             1 
     8 s_1_2        *              0             0             1 
     9 t_1_2                 1954.99             0               
    10 s_1_7        *              0             0             1 
    11 s_2_2        *              1             0             1 
    12 t_2_2                  22.599             0               
    13 s_2_7        *              1             0             1 
    14 s_1_3        *              0             0             1 
    15 t_1_3                 1972.32             0               
    16 s_2_3        *              1             0             1 
    17 t_2_3                  35.981             0               
    18 s_1_4        *              0             0             1 
    19 t_1_4                 1985.09             0               
    20 s_2_4        *              1             0             1 
    21 t_2_4                 57.5293             0               
    22 s_1_5        *              1             0             1 
    23 t_1_5                 36.0518             0               
    24 s_2_5        *              0             0             1 
    25 t_2_5                  67.374             0               
    26 t_1_6                       0             0               
    27 t_2_6                 1980.41             0               
    28 t_1_7                 71.5387             0               
    29 t_2_7                       0             0               
    30 s_1_8        *              1             0             1 
    31 t_1_8                 74.5387             0               
    32 s_2_8        *              0             0             1 
    33 t_2_8                 2067.68             0               
    34 u_1_1_2      *              1             0             1 
    35 u_2_1_2      *              0             0             1 
    36 u_1_1_3      *              1             0             1 
    37 u_2_1_3      *              0             0             1 
    38 u_1_1_4      *              1             0             1 
    39 u_2_1_4      *              0             0             1 
    40 u_1_1_5      *              0             0             1 
    41 u_2_1_5      *              0             0             1 
    42 u_1_1_7      *              1             0             1 
    43 u_2_1_7      *              0             0             1 
    44 u_1_2_1      *              0             0             1 
    45 u_2_2_1      *              1             0             1 
    46 u_1_2_3      *              1             0             1 
    47 u_2_2_3      *              1             0             1 
    48 u_1_2_4      *              1             0             1 
    49 u_2_2_4      *              1             0             1 
    50 u_1_2_5      *              0             0             1 
    51 u_2_2_5      *              1             0             1 
    52 u_1_2_6      *              0             0             1 
    53 u_2_2_6      *              1             0             1 
    54 u_1_3_1      *              0             0             1 
    55 u_2_3_1      *              1             0             1 
    56 u_1_3_2      *              0             0             1 
    57 u_2_3_2      *              0             0             1 
    58 u_1_3_5      *              0             0             1 
    59 u_2_3_5      *              1             0             1 
    60 u_1_3_6      *              0             0             1 
    61 u_2_3_6      *              1             0             1 
    62 u_1_4_1      *              0             0             1 
    63 u_2_4_1      *              1             0             1 
    64 u_1_4_2      *              0             0             1 
    65 u_2_4_2      *              0             0             1 
    66 u_1_4_5      *              0             0             1 
    67 u_2_4_5      *              1             0             1 
    68 u_1_4_6      *              0             0             1 
    69 u_2_4_6      *              1             0             1 
    70 u_1_5_1      *              1             0             1 
    71 u_2_5_1      *              1             0             1 
    72 u_1_5_2      *              1             0             1 
    73 u_2_5_2      *              0             0             1 
    74 u_1_5_3      *              1             0             1 
    75 u_2_5_3      *              0             0             1 
    76 u_1_5_4      *              1             0             1 
    77 u_2_5_4      *              0             0             1 
    78 u_1_6_2      *              1             0             1 
    79 u_2_6_2      *              0             0             1 
    80 u_1_6_3      *              1             0             1 
    81 u_2_6_3      *              0             0             1 
    82 u_1_6_4      *              1             0             1 
    83 u_2_6_4      *              0             0             1 
    84 u_1_6_7      *              1             0             1 
    85 u_2_6_7      *              0             0             1 
    86 u_1_7_1      *              0             0             1 
    87 u_2_7_1      *              1             0             1 
    88 u_1_7_6      *              0             0             1 
    89 u_2_7_6      *              1             0             1 

Integer feasibility conditions:

KKT.PE: max.abs.err = 4.55e-13 on row 139
        max.rel.err = 1.10e-16 on row 140
        High quality

KKT.PB: max.abs.err = 7.11e-14 on row 207
        max.rel.err = 4.86e-15 on row 207
        High quality

End of output
